c n orig vars 54
p cnf 149 394
55 -1 0
55 -2 0
-55 1 2 0
56 -3 0
56 -4 0
-56 3 4 0
57 -5 0
57 -6 0
-57 5 6 0
58 -7 0
58 -8 0
-58 7 8 0
59 -9 0
59 -10 0
-59 9 10 0
60 -11 0
60 -12 0
-60 11 12 0
61 -13 0
61 -14 0
-61 13 14 0
62 -15 0
62 -16 0
-62 15 16 0
63 -17 0
63 -18 0
-63 17 18 0
64 -19 0
64 -20 0
-64 19 20 0
65 -21 0
65 -22 0
-65 21 22 0
66 -23 0
66 -24 0
-66 23 24 0
-67 55 0
-67 56 0
-67 57 0
-67 58 0
-67 59 0
-67 60 0
-67 61 0
-67 62 0
-67 63 0
-67 64 0
-67 65 0
-67 66 0
67 -55 -56 -57 -58 -59 -60 -61 -62 -63 -64 -65 -66 0
-67 0
68 -25 0
68 -31 0
68 -37 0
68 -43 0
68 -49 0
-68 25 31 37 43 49 0
69 -26 0
69 -32 0
69 -38 0
69 -44 0
69 -50 0
-69 26 32 38 44 50 0
70 -27 0
70 -33 0
70 -39 0
70 -45 0
70 -51 0
-70 27 33 39 45 51 0
71 -28 0
71 -34 0
71 -40 0
71 -46 0
71 -52 0
-71 28 34 40 46 52 0
72 -29 0
72 -35 0
72 -41 0
72 -47 0
72 -53 0
-72 29 35 41 47 53 0
73 -30 0
73 -36 0
73 -42 0
73 -48 0
73 -54 0
-73 30 36 42 48 54 0
74 25 0
74 26 0
-74 -25 -26 0
75 25 0
75 27 0
-75 -25 -27 0
76 25 0
76 28 0
-76 -25 -28 0
77 25 0
77 29 0
-77 -25 -29 0
78 25 0
78 30 0
-78 -25 -30 0
79 26 0
79 27 0
-79 -26 -27 0
80 26 0
80 28 0
-80 -26 -28 0
81 26 0
81 29 0
-81 -26 -29 0
82 26 0
82 30 0
-82 -26 -30 0
83 27 0
83 28 0
-83 -27 -28 0
84 27 0
84 29 0
-84 -27 -29 0
85 27 0
85 30 0
-85 -27 -30 0
86 28 0
86 29 0
-86 -28 -29 0
87 28 0
87 30 0
-87 -28 -30 0
88 29 0
88 30 0
-88 -29 -30 0
89 31 0
89 32 0
-89 -31 -32 0
90 31 0
90 33 0
-90 -31 -33 0
91 31 0
91 34 0
-91 -31 -34 0
92 31 0
92 35 0
-92 -31 -35 0
93 31 0
93 36 0
-93 -31 -36 0
94 32 0
94 33 0
-94 -32 -33 0
95 32 0
95 34 0
-95 -32 -34 0
96 32 0
96 35 0
-96 -32 -35 0
97 32 0
97 36 0
-97 -32 -36 0
98 33 0
98 34 0
-98 -33 -34 0
99 33 0
99 35 0
-99 -33 -35 0
100 33 0
100 36 0
-100 -33 -36 0
101 34 0
101 35 0
-101 -34 -35 0
102 34 0
102 36 0
-102 -34 -36 0
103 35 0
103 36 0
-103 -35 -36 0
104 37 0
104 38 0
-104 -37 -38 0
105 37 0
105 39 0
-105 -37 -39 0
106 37 0
106 40 0
-106 -37 -40 0
107 37 0
107 41 0
-107 -37 -41 0
108 37 0
108 42 0
-108 -37 -42 0
109 38 0
109 39 0
-109 -38 -39 0
110 38 0
110 40 0
-110 -38 -40 0
111 38 0
111 41 0
-111 -38 -41 0
112 38 0
112 42 0
-112 -38 -42 0
113 39 0
113 40 0
-113 -39 -40 0
114 39 0
114 41 0
-114 -39 -41 0
115 39 0
115 42 0
-115 -39 -42 0
116 40 0
116 41 0
-116 -40 -41 0
117 40 0
117 42 0
-117 -40 -42 0
118 41 0
118 42 0
-118 -41 -42 0
119 43 0
119 44 0
-119 -43 -44 0
120 43 0
120 45 0
-120 -43 -45 0
121 43 0
121 46 0
-121 -43 -46 0
122 43 0
122 47 0
-122 -43 -47 0
123 43 0
123 48 0
-123 -43 -48 0
124 44 0
124 45 0
-124 -44 -45 0
125 44 0
125 46 0
-125 -44 -46 0
126 44 0
126 47 0
-126 -44 -47 0
127 44 0
127 48 0
-127 -44 -48 0
128 45 0
128 46 0
-128 -45 -46 0
129 45 0
129 47 0
-129 -45 -47 0
130 45 0
130 48 0
-130 -45 -48 0
131 46 0
131 47 0
-131 -46 -47 0
132 46 0
132 48 0
-132 -46 -48 0
133 47 0
133 48 0
-133 -47 -48 0
134 49 0
134 50 0
-134 -49 -50 0
135 49 0
135 51 0
-135 -49 -51 0
136 49 0
136 52 0
-136 -49 -52 0
137 49 0
137 53 0
-137 -49 -53 0
138 49 0
138 54 0
-138 -49 -54 0
139 50 0
139 51 0
-139 -50 -51 0
140 50 0
140 52 0
-140 -50 -52 0
141 50 0
141 53 0
-141 -50 -53 0
142 50 0
142 54 0
-142 -50 -54 0
143 51 0
143 52 0
-143 -51 -52 0
144 51 0
144 53 0
-144 -51 -53 0
145 51 0
145 54 0
-145 -51 -54 0
146 52 0
146 53 0
-146 -52 -53 0
147 52 0
147 54 0
-147 -52 -54 0
148 53 0
148 54 0
-148 -53 -54 0
-149 68 0
-149 69 0
-149 70 0
-149 71 0
-149 72 0
-149 73 0
-149 74 0
-149 75 0
-149 76 0
-149 77 0
-149 78 0
-149 79 0
-149 80 0
-149 81 0
-149 82 0
-149 83 0
-149 84 0
-149 85 0
-149 86 0
-149 87 0
-149 88 0
-149 89 0
-149 90 0
-149 91 0
-149 92 0
-149 93 0
-149 94 0
-149 95 0
-149 96 0
-149 97 0
-149 98 0
-149 99 0
-149 100 0
-149 101 0
-149 102 0
-149 103 0
-149 104 0
-149 105 0
-149 106 0
-149 107 0
-149 108 0
-149 109 0
-149 110 0
-149 111 0
-149 112 0
-149 113 0
-149 114 0
-149 115 0
-149 116 0
-149 117 0
-149 118 0
-149 119 0
-149 120 0
-149 121 0
-149 122 0
-149 123 0
-149 124 0
-149 125 0
-149 126 0
-149 127 0
-149 128 0
-149 129 0
-149 130 0
-149 131 0
-149 132 0
-149 133 0
-149 134 0
-149 135 0
-149 136 0
-149 137 0
-149 138 0
-149 139 0
-149 140 0
-149 141 0
-149 142 0
-149 143 0
-149 144 0
-149 145 0
-149 146 0
-149 147 0
-149 148 0
149 -68 -69 -70 -71 -72 -73 -74 -75 -76 -77 -78 -79 -80 -81 -82 -83 -84 -85 -86 -87 -88 -89 -90 -91 -92 -93 -94 -95 -96 -97 -98 -99 -100 -101 -102 -103 -104 -105 -106 -107 -108 -109 -110 -111 -112 -113 -114 -115 -116 -117 -118 -119 -120 -121 -122 -123 -124 -125 -126 -127 -128 -129 -130 -131 -132 -133 -134 -135 -136 -137 -138 -139 -140 -141 -142 -143 -144 -145 -146 -147 -148 0
-149 0
